Maximize

16.0 y_0_1 + 8.0 y_0_2 + 8.0 y_0_4 + 14.0 y_1_0 + 7.0 y_1_2 + 21.0 y_1_3 + 7.0 y_1_6 + 6.0 y_2_0 + 6.0 y_2_1 + 6.0 y_2_5 + 18.0 y_2_7 + 15.0 y_3_1 + 5.0 y_3_5 + 5.0 y_3_7 + 4.0 y_4_0 + 4.0 y_4_6 + 4.0 y_4_7 + 3.0 y_5_2 + 3.0 y_5_3 + 9.0 y_5_6 + 2.0 y_6_1 + 2.0 y_6_4 + 6.0 y_6_5 + 3.0 y_7_2 + 1.0 y_7_3 + 1.0 y_7_4


Subject To

a0: y_1_0 + y_2_0 + y_4_0 = 1
a1: y_0_1 + y_2_1 + y_3_1 + y_6_1 = 1
a2: y_0_2 + y_1_2 + y_5_2 + y_7_2 = 1
a3: y_1_3 + y_5_3 + y_7_3 = 1
a4: y_0_4 + y_6_4 + y_7_4 = 1
a5: y_2_5 + y_3_5 + y_6_5 = 1
a6: y_1_6 + y_4_6 + y_5_6 = 1
a7: y_2_7 + y_3_7 + y_4_7 = 1
b0: y_0_1 + y_0_2 + y_0_4 = 1
b1: y_1_0 + y_1_2 + y_1_3 + y_1_6 = 1
b2: y_2_0 + y_2_1 + y_2_5 + y_2_7 = 1
b3: y_3_1 + y_3_5 + y_3_7 = 1
b4: y_4_0 + y_4_6 + y_4_7 = 1
b5: y_5_2 + y_5_3 + y_5_6 = 1
b6: y_6_1 + y_6_4 + y_6_5 = 1
b7: y_7_2 + y_7_3 + y_7_4 = 1
c0: y_1_2 = 1 -> x_2 - x_1 >= 1
c1: y_1_3 = 1 -> x_3 - x_1 >= 1
c2: y_1_6 = 1 -> x_6 - x_1 >= 1
c3: y_2_1 = 1 -> x_1 - x_2 >= 1
c4: y_2_5 = 1 -> x_5 - x_2 >= 1
c5: y_2_7 = 1 -> x_7 - x_2 >= 1
c6: y_3_1 = 1 -> x_1 - x_3 >= 1
c7: y_3_5 = 1 -> x_5 - x_3 >= 1
c8: y_3_7 = 1 -> x_7 - x_3 >= 1
c9: y_4_6 = 1 -> x_6 - x_4 >= 1
c10: y_4_7 = 1 -> x_7 - x_4 >= 1
c11: y_5_2 = 1 -> x_2 - x_5 >= 1
c12: y_5_3 = 1 -> x_3 - x_5 >= 1
c13: y_5_6 = 1 -> x_6 - x_5 >= 1
c14: y_6_1 = 1 -> x_1 - x_6 >= 1
c15: y_6_4 = 1 -> x_4 - x_6 >= 1
c16: y_6_5 = 1 -> x_5 - x_6 >= 1
c17: y_7_2 = 1 -> x_2 - x_7 >= 1
c18: y_7_3 = 1 -> x_3 - x_7 >= 1
c19: y_7_4 = 1 -> x_4 - x_7 >= 1
d0: x_0 = 0



Bounds


x_0 <= 7
x_1 <= 7
x_2 <= 7
x_3 <= 7
x_4 <= 7
x_5 <= 7
x_6 <= 7
x_7 <= 7



Binary

y_0_1 y_0_2 y_0_4 y_1_0 y_1_2 y_1_3 y_1_6 y_2_0 y_2_1 y_2_5 y_2_7 y_3_1 y_3_5 y_3_7 y_4_0 y_4_6 y_4_7 y_5_2 y_5_3 y_5_6 y_6_1 y_6_4 y_6_5 y_7_2 y_7_3 y_7_4


General

 x_0 x_1 x_2 x_3 x_4 x_5 x_6 x_7



End
